ALGO = Normal
AMIX = 0.1
AMIX_MAG = 0.4
BMIX = 0.0001
BMIX_MAG = 0.0001
EDIFF = 0.0001
ENCUT = 400
IBRION = 2
ICHARG = 1
ISIF = 2
ISMEAR = 0
ISPIN = 2
LORBIT = 11
LREAL = Auto
LWAVE = False
MAGMOM = 2*0.6
NCORE = 4
NELM = 100
NSW = 99
PREC = Accurate
SIGMA = 0.05
