pymatgen generated KPOINTS with grid density = 1 / atom
0
Gamma
1 1 1
