H2
1.0
15.000000 0.000000 0.000000
0.000000 15.000000 0.000000
0.000000 0.000000 15.000000
H
2
direct
0.500000 0.500000 0.476667 H
0.500000 0.500000 0.523333 H
